p cnf 278 1454
1 0
-2 0
-3 0
-4 0
29 5 0
-29 -5 0
8 0
-5 0
-6 0
-7 0
4 12 36 0
-4 -12 0
-4 -36 0
-12 -36 0
9 10 11 12 0
-9 -197 0
-9 -198 0
-10 197 0
-10 -198 0
-11 -197 0
-11 198 0
-12 197 0
-12 198 0
-9 5 13 0
-9 5 37 0
-9 13 37 0
-10 6 14 0
-10 6 38 0
-10 14 38 0
-11 7 15 0
-11 7 39 0
-11 15 39 0
-12 8 16 0
-12 8 40 0
-12 16 40 0
-9 -5 -13 -37 0
-10 -6 -14 -38 0
-11 -7 -15 -39 0
-12 -8 -16 -40 0
13 14 15 16 0
-13 -199 0
-13 -200 0
-14 199 0
-14 -200 0
-15 -199 0
-15 200 0
-16 199 0
-16 200 0
-13 9 17 0
-13 9 41 0
-13 17 41 0
-14 10 18 0
-14 10 42 0
-14 18 42 0
-15 11 19 0
-15 11 43 0
-15 19 43 0
-16 12 20 0
-16 12 44 0
-16 20 44 0
-13 -9 -17 -41 0
-14 -10 -18 -42 0
-15 -11 -19 -43 0
-16 -12 -20 -44 0
17 18 19 20 0
-17 -201 0
-17 -202 0
-18 201 0
-18 -202 0
-19 -201 0
-19 202 0
-20 201 0
-20 202 0
-17 13 21 0
-17 13 45 0
-17 21 45 0
-18 14 22 0
-18 14 46 0
-18 22 46 0
-19 15 23 0
-19 15 47 0
-19 23 47 0
-20 16 24 0
-20 16 48 0
-20 24 48 0
-17 -13 -21 -45 0
-18 -14 -22 -46 0
-19 -15 -23 -47 0
-20 -16 -24 -48 0
21 22 23 24 0
-21 -203 0
-21 -204 0
-22 203 0
-22 -204 0
-23 -203 0
-23 204 0
-24 203 0
-24 204 0
-21 17 25 0
-21 17 49 0
-21 25 49 0
-22 18 26 0
-22 18 50 0
-22 26 50 0
-23 19 27 0
-23 19 51 0
-23 27 51 0
-24 20 28 0
-24 20 52 0
-24 28 52 0
-21 -17 -25 -49 0
-22 -18 -26 -50 0
-23 -19 -27 -51 0
-24 -20 -28 -52 0
25 26 27 28 0
-25 -205 0
-25 -206 0
-26 205 0
-26 -206 0
-27 -205 0
-27 206 0
-28 205 0
-28 206 0
-25 53 0
-25 21 0
-26 54 0
-26 22 0
-27 55 0
-27 23 0
-28 56 0
-28 24 0
29 30 31 32 0
-29 -207 0
-29 -208 0
-30 207 0
-30 -208 0
-31 -207 0
-31 208 0
-32 207 0
-32 208 0
-29 57 33 0
-29 57 1 0
-29 33 1 0
-30 58 34 0
-30 58 2 0
-30 34 2 0
-31 59 35 0
-31 59 3 0
-31 35 3 0
-32 60 36 0
-32 60 4 0
-32 36 4 0
-29 -57 -33 -1 0
-30 -58 -34 -2 0
-31 -59 -35 -3 0
-32 -60 -36 -4 0
33 34 35 36 0
-33 -209 0
-33 -210 0
-34 209 0
-34 -210 0
-35 -209 0
-35 210 0
-36 209 0
-36 210 0
-33 61 37 5 0
-33 61 37 29 0
-33 61 5 29 0
-33 37 5 29 0
-34 62 38 6 0
-34 62 38 30 0
-34 62 6 30 0
-34 38 6 30 0
-35 63 39 7 0
-35 63 39 31 0
-35 63 7 31 0
-35 39 7 31 0
-36 64 40 8 0
-36 64 40 32 0
-36 64 8 32 0
-36 40 8 32 0
-33 -61 -37 -5 0
-33 -61 -37 -29 0
-33 -61 -5 -29 0
-33 -37 -5 -29 0
-34 -62 -38 -6 0
-34 -62 -38 -30 0
-34 -62 -6 -30 0
-34 -38 -6 -30 0
-35 -63 -39 -7 0
-35 -63 -39 -31 0
-35 -63 -7 -31 0
-35 -39 -7 -31 0
-36 -64 -40 -8 0
-36 -64 -40 -32 0
-36 -64 -8 -32 0
-36 -40 -8 -32 0
37 38 39 40 0
-37 -211 0
-37 -212 0
-38 211 0
-38 -212 0
-39 -211 0
-39 212 0
-40 211 0
-40 212 0
-37 65 41 9 0
-37 65 41 33 0
-37 65 9 33 0
-37 41 9 33 0
-38 66 42 10 0
-38 66 42 34 0
-38 66 10 34 0
-38 42 10 34 0
-39 67 43 11 0
-39 67 43 35 0
-39 67 11 35 0
-39 43 11 35 0
-40 68 44 12 0
-40 68 44 36 0
-40 68 12 36 0
-40 44 12 36 0
-37 -65 -41 -9 0
-37 -65 -41 -33 0
-37 -65 -9 -33 0
-37 -41 -9 -33 0
-38 -66 -42 -10 0
-38 -66 -42 -34 0
-38 -66 -10 -34 0
-38 -42 -10 -34 0
-39 -67 -43 -11 0
-39 -67 -43 -35 0
-39 -67 -11 -35 0
-39 -43 -11 -35 0
-40 -68 -44 -12 0
-40 -68 -44 -36 0
-40 -68 -12 -36 0
-40 -44 -12 -36 0
41 42 43 44 0
-41 -213 0
-41 -214 0
-42 213 0
-42 -214 0
-43 -213 0
-43 214 0
-44 213 0
-44 214 0
-41 69 45 13 0
-41 69 45 37 0
-41 69 13 37 0
-41 45 13 37 0
-42 70 46 14 0
-42 70 46 38 0
-42 70 14 38 0
-42 46 14 38 0
-43 71 47 15 0
-43 71 47 39 0
-43 71 15 39 0
-43 47 15 39 0
-44 72 48 16 0
-44 72 48 40 0
-44 72 16 40 0
-44 48 16 40 0
-41 -69 -45 -13 0
-41 -69 -45 -37 0
-41 -69 -13 -37 0
-41 -45 -13 -37 0
-42 -70 -46 -14 0
-42 -70 -46 -38 0
-42 -70 -14 -38 0
-42 -46 -14 -38 0
-43 -71 -47 -15 0
-43 -71 -47 -39 0
-43 -71 -15 -39 0
-43 -47 -15 -39 0
-44 -72 -48 -16 0
-44 -72 -48 -40 0
-44 -72 -16 -40 0
-44 -48 -16 -40 0
45 46 47 48 0
-45 -215 0
-45 -216 0
-46 215 0
-46 -216 0
-47 -215 0
-47 216 0
-48 215 0
-48 216 0
-45 73 49 17 0
-45 73 49 41 0
-45 73 17 41 0
-45 49 17 41 0
-46 74 50 18 0
-46 74 50 42 0
-46 74 18 42 0
-46 50 18 42 0
-47 75 51 19 0
-47 75 51 43 0
-47 75 19 43 0
-47 51 19 43 0
-48 76 52 20 0
-48 76 52 44 0
-48 76 20 44 0
-48 52 20 44 0
-45 -73 -49 -17 0
-45 -73 -49 -41 0
-45 -73 -17 -41 0
-45 -49 -17 -41 0
-46 -74 -50 -18 0
-46 -74 -50 -42 0
-46 -74 -18 -42 0
-46 -50 -18 -42 0
-47 -75 -51 -19 0
-47 -75 -51 -43 0
-47 -75 -19 -43 0
-47 -51 -19 -43 0
-48 -76 -52 -20 0
-48 -76 -52 -44 0
-48 -76 -20 -44 0
-48 -52 -20 -44 0
51 0
-49 0
-50 0
-52 0
79 55 23 47 0
-79 -55 0
-79 -23 0
-79 -47 0
-55 -23 0
-55 -47 0
-23 -47 0
53 54 55 56 0
-53 -217 0
-53 -218 0
-54 217 0
-54 -218 0
-55 -217 0
-55 218 0
-56 217 0
-56 218 0
-53 81 49 0
-53 81 25 0
-53 49 25 0
-54 82 50 0
-54 82 26 0
-54 50 26 0
-55 83 51 0
-55 83 27 0
-55 51 27 0
-56 84 52 0
-56 84 28 0
-56 52 28 0
-53 -81 -49 -25 0
-54 -82 -50 -26 0
-55 -83 -51 -27 0
-56 -84 -52 -28 0
57 58 59 60 0
-57 -219 0
-57 -220 0
-58 219 0
-58 -220 0
-59 -219 0
-59 220 0
-60 219 0
-60 220 0
-57 85 61 0
-57 85 29 0
-57 61 29 0
-58 86 62 0
-58 86 30 0
-58 62 30 0
-59 87 63 0
-59 87 31 0
-59 63 31 0
-60 88 64 0
-60 88 32 0
-60 64 32 0
-57 -85 -61 -29 0
-58 -86 -62 -30 0
-59 -87 -63 -31 0
-60 -88 -64 -32 0
61 62 63 64 0
-61 -221 0
-61 -222 0
-62 221 0
-62 -222 0
-63 -221 0
-63 222 0
-64 221 0
-64 222 0
-61 89 65 33 0
-61 89 65 57 0
-61 89 33 57 0
-61 65 33 57 0
-62 90 66 34 0
-62 90 66 58 0
-62 90 34 58 0
-62 66 34 58 0
-63 91 67 35 0
-63 91 67 59 0
-63 91 35 59 0
-63 67 35 59 0
-64 92 68 36 0
-64 92 68 60 0
-64 92 36 60 0
-64 68 36 60 0
-61 -89 -65 -33 0
-61 -89 -65 -57 0
-61 -89 -33 -57 0
-61 -65 -33 -57 0
-62 -90 -66 -34 0
-62 -90 -66 -58 0
-62 -90 -34 -58 0
-62 -66 -34 -58 0
-63 -91 -67 -35 0
-63 -91 -67 -59 0
-63 -91 -35 -59 0
-63 -67 -35 -59 0
-64 -92 -68 -36 0
-64 -92 -68 -60 0
-64 -92 -36 -60 0
-64 -68 -36 -60 0
65 66 67 68 0
-65 -223 0
-65 -224 0
-66 223 0
-66 -224 0
-67 -223 0
-67 224 0
-68 223 0
-68 224 0
-65 93 69 37 0
-65 93 69 61 0
-65 93 37 61 0
-65 69 37 61 0
-66 94 70 38 0
-66 94 70 62 0
-66 94 38 62 0
-66 70 38 62 0
-67 95 71 39 0
-67 95 71 63 0
-67 95 39 63 0
-67 71 39 63 0
-68 96 72 40 0
-68 96 72 64 0
-68 96 40 64 0
-68 72 40 64 0
-65 -93 -69 -37 0
-65 -93 -69 -61 0
-65 -93 -37 -61 0
-65 -69 -37 -61 0
-66 -94 -70 -38 0
-66 -94 -70 -62 0
-66 -94 -38 -62 0
-66 -70 -38 -62 0
-67 -95 -71 -39 0
-67 -95 -71 -63 0
-67 -95 -39 -63 0
-67 -71 -39 -63 0
-68 -96 -72 -40 0
-68 -96 -72 -64 0
-68 -96 -40 -64 0
-68 -72 -40 -64 0
70 0
-69 0
-71 0
-72 0
98 74 42 66 0
-98 -74 0
-98 -42 0
-98 -66 0
-74 -42 0
-74 -66 0
-42 -66 0
73 74 75 76 0
-73 -225 0
-73 -226 0
-74 225 0
-74 -226 0
-75 -225 0
-75 226 0
-76 225 0
-76 226 0
-73 101 77 45 0
-73 101 77 69 0
-73 101 45 69 0
-73 77 45 69 0
-74 102 78 46 0
-74 102 78 70 0
-74 102 46 70 0
-74 78 46 70 0
-75 103 79 47 0
-75 103 79 71 0
-75 103 47 71 0
-75 79 47 71 0
-76 104 80 48 0
-76 104 80 72 0
-76 104 48 72 0
-76 80 48 72 0
-73 -101 -77 -45 0
-73 -101 -77 -69 0
-73 -101 -45 -69 0
-73 -77 -45 -69 0
-74 -102 -78 -46 0
-74 -102 -78 -70 0
-74 -102 -46 -70 0
-74 -78 -46 -70 0
-75 -103 -79 -47 0
-75 -103 -79 -71 0
-75 -103 -47 -71 0
-75 -79 -47 -71 0
-76 -104 -80 -48 0
-76 -104 -80 -72 0
-76 -104 -48 -72 0
-76 -80 -48 -72 0
77 78 79 80 0
-77 -227 0
-77 -228 0
-78 227 0
-78 -228 0
-79 -227 0
-79 228 0
-80 227 0
-80 228 0
-77 105 81 49 0
-77 105 81 73 0
-77 105 49 73 0
-77 81 49 73 0
-78 106 82 50 0
-78 106 82 74 0
-78 106 50 74 0
-78 82 50 74 0
-79 107 83 51 0
-79 107 83 75 0
-79 107 51 75 0
-79 83 51 75 0
-80 108 84 52 0
-80 108 84 76 0
-80 108 52 76 0
-80 84 52 76 0
-77 -105 -81 -49 0
-77 -105 -81 -73 0
-77 -105 -49 -73 0
-77 -81 -49 -73 0
-78 -106 -82 -50 0
-78 -106 -82 -74 0
-78 -106 -50 -74 0
-78 -82 -50 -74 0
-79 -107 -83 -51 0
-79 -107 -83 -75 0
-79 -107 -51 -75 0
-79 -83 -51 -75 0
-80 -108 -84 -52 0
-80 -108 -84 -76 0
-80 -108 -52 -76 0
-80 -84 -52 -76 0
81 82 83 84 0
-81 -229 0
-81 -230 0
-82 229 0
-82 -230 0
-83 -229 0
-83 230 0
-84 229 0
-84 230 0
-81 109 77 0
-81 109 53 0
-81 77 53 0
-82 110 78 0
-82 110 54 0
-82 78 54 0
-83 111 79 0
-83 111 55 0
-83 79 55 0
-84 112 80 0
-84 112 56 0
-84 80 56 0
-81 -109 -77 -53 0
-82 -110 -78 -54 0
-83 -111 -79 -55 0
-84 -112 -80 -56 0
85 86 87 88 0
-85 -231 0
-85 -232 0
-86 231 0
-86 -232 0
-87 -231 0
-87 232 0
-88 231 0
-88 232 0
-85 113 89 0
-85 113 57 0
-85 89 57 0
-86 114 90 0
-86 114 58 0
-86 90 58 0
-87 115 91 0
-87 115 59 0
-87 91 59 0
-88 116 92 0
-88 116 60 0
-88 92 60 0
-85 -113 -89 -57 0
-86 -114 -90 -58 0
-87 -115 -91 -59 0
-88 -116 -92 -60 0
89 90 91 92 0
-89 -233 0
-89 -234 0
-90 233 0
-90 -234 0
-91 -233 0
-91 234 0
-92 233 0
-92 234 0
-89 117 93 61 0
-89 117 93 85 0
-89 117 61 85 0
-89 93 61 85 0
-90 118 94 62 0
-90 118 94 86 0
-90 118 62 86 0
-90 94 62 86 0
-91 119 95 63 0
-91 119 95 87 0
-91 119 63 87 0
-91 95 63 87 0
-92 120 96 64 0
-92 120 96 88 0
-92 120 64 88 0
-92 96 64 88 0
-89 -117 -93 -61 0
-89 -117 -93 -85 0
-89 -117 -61 -85 0
-89 -93 -61 -85 0
-90 -118 -94 -62 0
-90 -118 -94 -86 0
-90 -118 -62 -86 0
-90 -94 -62 -86 0
-91 -119 -95 -63 0
-91 -119 -95 -87 0
-91 -119 -63 -87 0
-91 -95 -63 -87 0
-92 -120 -96 -64 0
-92 -120 -96 -88 0
-92 -120 -64 -88 0
-92 -96 -64 -88 0
93 94 95 96 0
-93 -235 0
-93 -236 0
-94 235 0
-94 -236 0
-95 -235 0
-95 236 0
-96 235 0
-96 236 0
-93 121 97 65 0
-93 121 97 89 0
-93 121 65 89 0
-93 97 65 89 0
-94 122 98 66 0
-94 122 98 90 0
-94 122 66 90 0
-94 98 66 90 0
-95 123 99 67 0
-95 123 99 91 0
-95 123 67 91 0
-95 99 67 91 0
-96 124 100 68 0
-96 124 100 92 0
-96 124 68 92 0
-96 100 68 92 0
-93 -121 -97 -65 0
-93 -121 -97 -89 0
-93 -121 -65 -89 0
-93 -97 -65 -89 0
-94 -122 -98 -66 0
-94 -122 -98 -90 0
-94 -122 -66 -90 0
-94 -98 -66 -90 0
-95 -123 -99 -67 0
-95 -123 -99 -91 0
-95 -123 -67 -91 0
-95 -99 -67 -91 0
-96 -124 -100 -68 0
-96 -124 -100 -92 0
-96 -124 -68 -92 0
-96 -100 -68 -92 0
97 98 99 100 0
-97 -237 0
-97 -238 0
-98 237 0
-98 -238 0
-99 -237 0
-99 238 0
-100 237 0
-100 238 0
-97 125 101 69 0
-97 125 101 93 0
-97 125 69 93 0
-97 101 69 93 0
-98 126 102 70 0
-98 126 102 94 0
-98 126 70 94 0
-98 102 70 94 0
-99 127 103 71 0
-99 127 103 95 0
-99 127 71 95 0
-99 103 71 95 0
-100 128 104 72 0
-100 128 104 96 0
-100 128 72 96 0
-100 104 72 96 0
-97 -125 -101 -69 0
-97 -125 -101 -93 0
-97 -125 -69 -93 0
-97 -101 -69 -93 0
-98 -126 -102 -70 0
-98 -126 -102 -94 0
-98 -126 -70 -94 0
-98 -102 -70 -94 0
-99 -127 -103 -71 0
-99 -127 -103 -95 0
-99 -127 -71 -95 0
-99 -103 -71 -95 0
-100 -128 -104 -72 0
-100 -128 -104 -96 0
-100 -128 -72 -96 0
-100 -104 -72 -96 0
101 102 103 104 0
-101 -239 0
-101 -240 0
-102 239 0
-102 -240 0
-103 -239 0
-103 240 0
-104 239 0
-104 240 0
-101 129 105 73 0
-101 129 105 97 0
-101 129 73 97 0
-101 105 73 97 0
-102 130 106 74 0
-102 130 106 98 0
-102 130 74 98 0
-102 106 74 98 0
-103 131 107 75 0
-103 131 107 99 0
-103 131 75 99 0
-103 107 75 99 0
-104 132 108 76 0
-104 132 108 100 0
-104 132 76 100 0
-104 108 76 100 0
-101 -129 -105 -73 0
-101 -129 -105 -97 0
-101 -129 -73 -97 0
-101 -105 -73 -97 0
-102 -130 -106 -74 0
-102 -130 -106 -98 0
-102 -130 -74 -98 0
-102 -106 -74 -98 0
-103 -131 -107 -75 0
-103 -131 -107 -99 0
-103 -131 -75 -99 0
-103 -107 -75 -99 0
-104 -132 -108 -76 0
-104 -132 -108 -100 0
-104 -132 -76 -100 0
-104 -108 -76 -100 0
105 106 107 108 0
-105 -241 0
-105 -242 0
-106 241 0
-106 -242 0
-107 -241 0
-107 242 0
-108 241 0
-108 242 0
-105 133 109 77 0
-105 133 109 101 0
-105 133 77 101 0
-105 109 77 101 0
-106 134 110 78 0
-106 134 110 102 0
-106 134 78 102 0
-106 110 78 102 0
-107 135 111 79 0
-107 135 111 103 0
-107 135 79 103 0
-107 111 79 103 0
-108 136 112 80 0
-108 136 112 104 0
-108 136 80 104 0
-108 112 80 104 0
-105 -133 -109 -77 0
-105 -133 -109 -101 0
-105 -133 -77 -101 0
-105 -109 -77 -101 0
-106 -134 -110 -78 0
-106 -134 -110 -102 0
-106 -134 -78 -102 0
-106 -110 -78 -102 0
-107 -135 -111 -79 0
-107 -135 -111 -103 0
-107 -135 -79 -103 0
-107 -111 -79 -103 0
-108 -136 -112 -80 0
-108 -136 -112 -104 0
-108 -136 -80 -104 0
-108 -112 -80 -104 0
109 110 111 112 0
-109 -243 0
-109 -244 0
-110 243 0
-110 -244 0
-111 -243 0
-111 244 0
-112 243 0
-112 244 0
-109 137 105 0
-109 137 81 0
-109 105 81 0
-110 138 106 0
-110 138 82 0
-110 106 82 0
-111 139 107 0
-111 139 83 0
-111 107 83 0
-112 140 108 0
-112 140 84 0
-112 108 84 0
-109 -137 -105 -81 0
-110 -138 -106 -82 0
-111 -139 -107 -83 0
-112 -140 -108 -84 0
113 114 115 116 0
-113 -245 0
-113 -246 0
-114 245 0
-114 -246 0
-115 -245 0
-115 246 0
-116 245 0
-116 246 0
-113 141 117 0
-113 141 85 0
-113 117 85 0
-114 142 118 0
-114 142 86 0
-114 118 86 0
-115 143 119 0
-115 143 87 0
-115 119 87 0
-116 144 120 0
-116 144 88 0
-116 120 88 0
-113 -141 -117 -85 0
-114 -142 -118 -86 0
-115 -143 -119 -87 0
-116 -144 -120 -88 0
117 118 119 120 0
-117 -247 0
-117 -248 0
-118 247 0
-118 -248 0
-119 -247 0
-119 248 0
-120 247 0
-120 248 0
-117 145 121 89 0
-117 145 121 113 0
-117 145 89 113 0
-117 121 89 113 0
-118 146 122 90 0
-118 146 122 114 0
-118 146 90 114 0
-118 122 90 114 0
-119 147 123 91 0
-119 147 123 115 0
-119 147 91 115 0
-119 123 91 115 0
-120 148 124 92 0
-120 148 124 116 0
-120 148 92 116 0
-120 124 92 116 0
-117 -145 -121 -89 0
-117 -145 -121 -113 0
-117 -145 -89 -113 0
-117 -121 -89 -113 0
-118 -146 -122 -90 0
-118 -146 -122 -114 0
-118 -146 -90 -114 0
-118 -122 -90 -114 0
-119 -147 -123 -91 0
-119 -147 -123 -115 0
-119 -147 -91 -115 0
-119 -123 -91 -115 0
-120 -148 -124 -92 0
-120 -148 -124 -116 0
-120 -148 -92 -116 0
-120 -124 -92 -116 0
121 122 123 124 0
-121 -249 0
-121 -250 0
-122 249 0
-122 -250 0
-123 -249 0
-123 250 0
-124 249 0
-124 250 0
-121 149 125 93 0
-121 149 125 117 0
-121 149 93 117 0
-121 125 93 117 0
-122 150 126 94 0
-122 150 126 118 0
-122 150 94 118 0
-122 126 94 118 0
-123 151 127 95 0
-123 151 127 119 0
-123 151 95 119 0
-123 127 95 119 0
-124 152 128 96 0
-124 152 128 120 0
-124 152 96 120 0
-124 128 96 120 0
-121 -149 -125 -93 0
-121 -149 -125 -117 0
-121 -149 -93 -117 0
-121 -125 -93 -117 0
-122 -150 -126 -94 0
-122 -150 -126 -118 0
-122 -150 -94 -118 0
-122 -126 -94 -118 0
-123 -151 -127 -95 0
-123 -151 -127 -119 0
-123 -151 -95 -119 0
-123 -127 -95 -119 0
-124 -152 -128 -96 0
-124 -152 -128 -120 0
-124 -152 -96 -120 0
-124 -128 -96 -120 0
125 126 127 128 0
-125 -251 0
-125 -252 0
-126 251 0
-126 -252 0
-127 -251 0
-127 252 0
-128 251 0
-128 252 0
-125 153 129 97 0
-125 153 129 121 0
-125 153 97 121 0
-125 129 97 121 0
-126 154 130 98 0
-126 154 130 122 0
-126 154 98 122 0
-126 130 98 122 0
-127 155 131 99 0
-127 155 131 123 0
-127 155 99 123 0
-127 131 99 123 0
-128 156 132 100 0
-128 156 132 124 0
-128 156 100 124 0
-128 132 100 124 0
-125 -153 -129 -97 0
-125 -153 -129 -121 0
-125 -153 -97 -121 0
-125 -129 -97 -121 0
-126 -154 -130 -98 0
-126 -154 -130 -122 0
-126 -154 -98 -122 0
-126 -130 -98 -122 0
-127 -155 -131 -99 0
-127 -155 -131 -123 0
-127 -155 -99 -123 0
-127 -131 -99 -123 0
-128 -156 -132 -100 0
-128 -156 -132 -124 0
-128 -156 -100 -124 0
-128 -132 -100 -124 0
129 130 131 132 0
-129 -253 0
-129 -254 0
-130 253 0
-130 -254 0
-131 -253 0
-131 254 0
-132 253 0
-132 254 0
-129 157 133 101 0
-129 157 133 125 0
-129 157 101 125 0
-129 133 101 125 0
-130 158 134 102 0
-130 158 134 126 0
-130 158 102 126 0
-130 134 102 126 0
-131 159 135 103 0
-131 159 135 127 0
-131 159 103 127 0
-131 135 103 127 0
-132 160 136 104 0
-132 160 136 128 0
-132 160 104 128 0
-132 136 104 128 0
-129 -157 -133 -101 0
-129 -157 -133 -125 0
-129 -157 -101 -125 0
-129 -133 -101 -125 0
-130 -158 -134 -102 0
-130 -158 -134 -126 0
-130 -158 -102 -126 0
-130 -134 -102 -126 0
-131 -159 -135 -103 0
-131 -159 -135 -127 0
-131 -159 -103 -127 0
-131 -135 -103 -127 0
-132 -160 -136 -104 0
-132 -160 -136 -128 0
-132 -160 -104 -128 0
-132 -136 -104 -128 0
133 134 135 136 0
-133 -255 0
-133 -256 0
-134 255 0
-134 -256 0
-135 -255 0
-135 256 0
-136 255 0
-136 256 0
-133 161 137 105 0
-133 161 137 129 0
-133 161 105 129 0
-133 137 105 129 0
-134 162 138 106 0
-134 162 138 130 0
-134 162 106 130 0
-134 138 106 130 0
-135 163 139 107 0
-135 163 139 131 0
-135 163 107 131 0
-135 139 107 131 0
-136 164 140 108 0
-136 164 140 132 0
-136 164 108 132 0
-136 140 108 132 0
-133 -161 -137 -105 0
-133 -161 -137 -129 0
-133 -161 -105 -129 0
-133 -137 -105 -129 0
-134 -162 -138 -106 0
-134 -162 -138 -130 0
-134 -162 -106 -130 0
-134 -138 -106 -130 0
-135 -163 -139 -107 0
-135 -163 -139 -131 0
-135 -163 -107 -131 0
-135 -139 -107 -131 0
-136 -164 -140 -108 0
-136 -164 -140 -132 0
-136 -164 -108 -132 0
-136 -140 -108 -132 0
137 138 139 140 0
-137 -257 0
-137 -258 0
-138 257 0
-138 -258 0
-139 -257 0
-139 258 0
-140 257 0
-140 258 0
-137 165 133 0
-137 165 109 0
-137 133 109 0
-138 166 134 0
-138 166 110 0
-138 134 110 0
-139 167 135 0
-139 167 111 0
-139 135 111 0
-140 168 136 0
-140 168 112 0
-140 136 112 0
-137 -165 -133 -109 0
-138 -166 -134 -110 0
-139 -167 -135 -111 0
-140 -168 -136 -112 0
142 0
-141 0
-143 0
-144 0
170 146 114 0
-170 -146 0
-170 -114 0
-146 -114 0
145 146 147 148 0
-145 -259 0
-145 -260 0
-146 259 0
-146 -260 0
-147 -259 0
-147 260 0
-148 259 0
-148 260 0
-145 173 149 117 0
-145 173 149 141 0
-145 173 117 141 0
-145 149 117 141 0
-146 174 150 118 0
-146 174 150 142 0
-146 174 118 142 0
-146 150 118 142 0
-147 175 151 119 0
-147 175 151 143 0
-147 175 119 143 0
-147 151 119 143 0
-148 176 152 120 0
-148 176 152 144 0
-148 176 120 144 0
-148 152 120 144 0
-145 -173 -149 -117 0
-145 -173 -149 -141 0
-145 -173 -117 -141 0
-145 -149 -117 -141 0
-146 -174 -150 -118 0
-146 -174 -150 -142 0
-146 -174 -118 -142 0
-146 -150 -118 -142 0
-147 -175 -151 -119 0
-147 -175 -151 -143 0
-147 -175 -119 -143 0
-147 -151 -119 -143 0
-148 -176 -152 -120 0
-148 -176 -152 -144 0
-148 -176 -120 -144 0
-148 -152 -120 -144 0
149 150 151 152 0
-149 -261 0
-149 -262 0
-150 261 0
-150 -262 0
-151 -261 0
-151 262 0
-152 261 0
-152 262 0
-149 177 153 121 0
-149 177 153 145 0
-149 177 121 145 0
-149 153 121 145 0
-150 178 154 122 0
-150 178 154 146 0
-150 178 122 146 0
-150 154 122 146 0
-151 179 155 123 0
-151 179 155 147 0
-151 179 123 147 0
-151 155 123 147 0
-152 180 156 124 0
-152 180 156 148 0
-152 180 124 148 0
-152 156 124 148 0
-149 -177 -153 -121 0
-149 -177 -153 -145 0
-149 -177 -121 -145 0
-149 -153 -121 -145 0
-150 -178 -154 -122 0
-150 -178 -154 -146 0
-150 -178 -122 -146 0
-150 -154 -122 -146 0
-151 -179 -155 -123 0
-151 -179 -155 -147 0
-151 -179 -123 -147 0
-151 -155 -123 -147 0
-152 -180 -156 -124 0
-152 -180 -156 -148 0
-152 -180 -124 -148 0
-152 -156 -124 -148 0
156 0
-153 0
-154 0
-155 0
184 160 128 152 0
-184 -160 0
-184 -128 0
-184 -152 0
-160 -128 0
-160 -152 0
-128 -152 0
157 158 159 160 0
-157 -263 0
-157 -264 0
-158 263 0
-158 -264 0
-159 -263 0
-159 264 0
-160 263 0
-160 264 0
-157 185 161 129 0
-157 185 161 153 0
-157 185 129 153 0
-157 161 129 153 0
-158 186 162 130 0
-158 186 162 154 0
-158 186 130 154 0
-158 162 130 154 0
-159 187 163 131 0
-159 187 163 155 0
-159 187 131 155 0
-159 163 131 155 0
-160 188 164 132 0
-160 188 164 156 0
-160 188 132 156 0
-160 164 132 156 0
-157 -185 -161 -129 0
-157 -185 -161 -153 0
-157 -185 -129 -153 0
-157 -161 -129 -153 0
-158 -186 -162 -130 0
-158 -186 -162 -154 0
-158 -186 -130 -154 0
-158 -162 -130 -154 0
-159 -187 -163 -131 0
-159 -187 -163 -155 0
-159 -187 -131 -155 0
-159 -163 -131 -155 0
-160 -188 -164 -132 0
-160 -188 -164 -156 0
-160 -188 -132 -156 0
-160 -164 -132 -156 0
161 162 163 164 0
-161 -265 0
-161 -266 0
-162 265 0
-162 -266 0
-163 -265 0
-163 266 0
-164 265 0
-164 266 0
-161 189 165 133 0
-161 189 165 157 0
-161 189 133 157 0
-161 165 133 157 0
-162 190 166 134 0
-162 190 166 158 0
-162 190 134 158 0
-162 166 134 158 0
-163 191 167 135 0
-163 191 167 159 0
-163 191 135 159 0
-163 167 135 159 0
-164 192 168 136 0
-164 192 168 160 0
-164 192 136 160 0
-164 168 136 160 0
-161 -189 -165 -133 0
-161 -189 -165 -157 0
-161 -189 -133 -157 0
-161 -165 -133 -157 0
-162 -190 -166 -134 0
-162 -190 -166 -158 0
-162 -190 -134 -158 0
-162 -166 -134 -158 0
-163 -191 -167 -135 0
-163 -191 -167 -159 0
-163 -191 -135 -159 0
-163 -167 -135 -159 0
-164 -192 -168 -136 0
-164 -192 -168 -160 0
-164 -192 -136 -160 0
-164 -168 -136 -160 0
165 166 167 168 0
-165 -267 0
-165 -268 0
-166 267 0
-166 -268 0
-167 -267 0
-167 268 0
-168 267 0
-168 268 0
-165 193 161 0
-165 193 137 0
-165 161 137 0
-166 194 162 0
-166 194 138 0
-166 162 138 0
-167 195 163 0
-167 195 139 0
-167 163 139 0
-168 196 164 0
-168 196 140 0
-168 164 140 0
-165 -193 -161 -137 0
-166 -194 -162 -138 0
-167 -195 -163 -139 0
-168 -196 -164 -140 0
169 0
-170 0
-171 0
-172 0
141 173 0
-141 -173 0
173 174 175 176 0
-173 -269 0
-173 -270 0
-174 269 0
-174 -270 0
-175 -269 0
-175 270 0
-176 269 0
-176 270 0
-173 145 177 0
-173 145 169 0
-173 177 169 0
-174 146 178 0
-174 146 170 0
-174 178 170 0
-175 147 179 0
-175 147 171 0
-175 179 171 0
-176 148 180 0
-176 148 172 0
-176 180 172 0
-173 -145 -177 -169 0
-174 -146 -178 -170 0
-175 -147 -179 -171 0
-176 -148 -180 -172 0
177 178 179 180 0
-177 -271 0
-177 -272 0
-178 271 0
-178 -272 0
-179 -271 0
-179 272 0
-180 271 0
-180 272 0
-177 149 181 0
-177 149 173 0
-177 181 173 0
-178 150 182 0
-178 150 174 0
-178 182 174 0
-179 151 183 0
-179 151 175 0
-179 183 175 0
-180 152 184 0
-180 152 176 0
-180 184 176 0
-177 -149 -181 -173 0
-178 -150 -182 -174 0
-179 -151 -183 -175 0
-180 -152 -184 -176 0
181 182 183 184 0
-181 -273 0
-181 -274 0
-182 273 0
-182 -274 0
-183 -273 0
-183 274 0
-184 273 0
-184 274 0
-181 153 185 0
-181 153 177 0
-181 185 177 0
-182 154 186 0
-182 154 178 0
-182 186 178 0
-183 155 187 0
-183 155 179 0
-183 187 179 0
-184 156 188 0
-184 156 180 0
-184 188 180 0
-181 -153 -185 -177 0
-182 -154 -186 -178 0
-183 -155 -187 -179 0
-184 -156 -188 -180 0
185 186 187 188 0
-185 -275 0
-185 -276 0
-186 275 0
-186 -276 0
-187 -275 0
-187 276 0
-188 275 0
-188 276 0
-185 157 189 0
-185 157 181 0
-185 189 181 0
-186 158 190 0
-186 158 182 0
-186 190 182 0
-187 159 191 0
-187 159 183 0
-187 191 183 0
-188 160 192 0
-188 160 184 0
-188 192 184 0
-185 -157 -189 -181 0
-186 -158 -190 -182 0
-187 -159 -191 -183 0
-188 -160 -192 -184 0
189 190 191 192 0
-189 -277 0
-189 -278 0
-190 277 0
-190 -278 0
-191 -277 0
-191 278 0
-192 277 0
-192 278 0
-189 161 193 0
-189 161 185 0
-189 193 185 0
-190 162 194 0
-190 162 186 0
-190 194 186 0
-191 163 195 0
-191 163 187 0
-191 195 187 0
-192 164 196 0
-192 164 188 0
-192 196 188 0
-189 -161 -193 -185 0
-190 -162 -194 -186 0
-191 -163 -195 -187 0
-192 -164 -196 -188 0
195 0
-193 0
-194 0
-196 0
167 191 0
-167 -191 0
29 33 37 41 45 53 0
57 61 65 73 77 81 0
85 89 93 97 101 105 109 0
113 117 121 125 129 133 137 0
145 149 157 161 165 0
86 90 94 98 102 106 110 0
114 118 122 126 130 134 138 0
34 62 90 118 146 174 0
10 38 66 94 122 150 178 0
59 63 67 75 79 83 0
87 91 95 99 103 107 111 0
115 119 123 127 131 135 139 0
147 151 159 163 167 0
32 36 40 44 48 56 0
60 64 68 76 80 84 0
88 92 96 100 104 108 112 0
116 120 124 128 132 136 140 0
12 40 68 96 124 152 180 0